75
E=-397.4923309829 method=final_polish fp=c9ced38d2ce6b571a77f7eb168ffadaf ts=2026-05-19T14:48:03+00:00
LJ  0.0020189389  0.0011153695  -0.0008201678
LJ  0.7597729745  0.5513725250  -0.5523242788
LJ  0.7595086882  0.5493524471  0.5530537252
LJ  -0.2860970998  0.8923923850  -0.5519511234
LJ  -0.2863613866  0.8903723059  0.5534268809
LJ  0.7586353430  -0.5486881815  -0.5543349145
LJ  0.7583710581  -0.5507082589  0.5510430898
LJ  0.0022844379  0.0031447198  -1.1112714170
LJ  0.0017534393  -0.0009139803  1.1096310820
LJ  -0.9336179837  0.0030935432  -0.5537311340
LJ  -0.9338822699  0.0010734626  0.5516468704
LJ  -0.2879378252  -0.8875432272  -0.5552043979
LJ  -0.2882021098  -0.8895633064  0.5501736060
LJ  0.4744697678  1.4500666237  0.0019407510
LJ  1.5260512653  -0.0004613735  -0.0004586675
LJ  -1.2300227172  0.8981932354  0.0005246735
LJ  0.4714718874  -1.4488103657  -0.0033576672
LJ  -1.2318755089  -0.8934112741  -0.0027499284
LJ  1.5251150393  1.1053022328  0.0015618952
LJ  0.4766030430  1.4554012696  1.1057968856
LJ  0.4771308839  1.4594358131  -1.1018873661
LJ  -0.5774649519  1.7908764272  0.0023120732
LJ  1.5340480586  0.0015478962  -1.1042989596
LJ  1.5335202232  -0.0024866440  1.1033852929
LJ  0.7659408360  0.5521756081  1.6653464155
LJ  0.7667369962  0.5582610787  -1.6645960188
LJ  -0.2891757069  0.8962104004  1.6657228711
LJ  -0.2883795459  0.9022958737  -1.6642195630
LJ  1.5228279861  -1.1062206764  -0.0024802149
LJ  0.7655893057  -0.5515251924  -1.6666244317
LJ  0.7647931488  -0.5576106615  1.6633180047
LJ  -1.2360101256  0.9047622449  -1.1033106285
LJ  -1.2365379644  0.9007276959  1.1043736237
LJ  -0.9416251199  0.0051347996  -1.6660153109
LJ  -0.9424212799  -0.0009506756  1.6639271245
LJ  -0.2910327025  -0.8994615044  1.6624408338
LJ  -0.2902365469  -0.8933760318  -1.6675016009
LJ  0.4741177880  -1.4541499566  -1.1072126684
LJ  0.4735899553  -1.4581844989  1.1004715831
LJ  -1.8792179007  0.0030616701  -0.0012663977
LJ  -1.2384001547  -0.8999673383  1.1010824056
LJ  -1.2378723205  -0.8959327906  -1.1066018457
LJ  -0.5811654783  -1.7874428076  -0.0042281931
LJ  1.5333891780  1.1094773241  1.1038502797
LJ  1.5339162685  1.1135061357  -1.1006997840
LJ  -0.5804496914  1.8029233050  -1.0999454004
LJ  -0.5809767826  1.7988944864  1.1046046628
LJ  1.5310893086  -1.1144422312  1.0997855126
LJ  1.5316163918  -1.1104134211  -1.1047645531
LJ  0.0025548130  0.0052113550  -2.2421235422
LJ  0.0014830636  -0.0029806139  2.2404832070
LJ  -1.8894995918  0.0050869922  -1.1035439309
LJ  -1.8900266803  0.0010581676  1.1010061323
LJ  -0.5841709671  -1.7954541243  -1.1065223288
LJ  -0.5846980461  -1.7994829434  1.0980277357
LJ  1.2452576981  2.0247686290  0.5537923929
LJ  1.2455209972  2.0267811258  -0.5474380369
LJ  0.1912091087  2.3705535522  -0.5470618688
LJ  0.1909458096  2.3685410539  0.5541685613
LJ  2.3130892829  0.5542013057  -0.5498739301
LJ  2.3128259886  0.5521888118  0.5513565002
LJ  2.3116791756  -0.5567511131  0.5493296306
LJ  2.3119424677  -0.5547386187  -0.5519007998
LJ  -1.5391961238  1.8102902469  -0.5484994735
LJ  -1.5394594200  1.8082777436  0.5527309565
LJ  -2.1922068135  0.9118008615  0.5509365780
LJ  -2.1919435184  0.9138133658  -0.5502938518
LJ  1.2413307231  -2.0251063037  -0.5548438651
LJ  1.2410674341  -2.0271187992  0.5463865651
LJ  0.1860467769  -2.3687089407  0.5455100585
LJ  0.1863100646  -2.3666964414  -0.5557203716
LJ  -2.1940877704  -0.9070407263  0.5476121894
LJ  -2.1938244795  -0.9050282189  -0.5536182402
LJ  -1.5429326682  -1.8028538283  -0.5551033882
LJ  -1.5431959554  -1.8048663329  0.5461270418
