104
E=-582.0866420676 method=n104_focused_bh_w4 fp=865b21ceee3e343003509a918e3a59ee ts=2026-05-20T03:25:24+00:00
LJ  -1.0147568739  -2.5905861139  1.1169847844
LJ  -1.0718223373  -5.3678239498  2.4864185897
LJ  -0.9739692811  -1.7773377540  1.8608650874
LJ  0.6386638629  -3.8241670063  0.7328178160
LJ  -2.0731268562  -3.5429214092  2.2008899605
LJ  -2.0777295442  -4.2979293830  3.0087503224
LJ  -1.1041407346  -4.1921568148  -0.3902766419
LJ  -0.0102718998  -3.2017067448  0.1032196974
LJ  0.0681829315  -4.0327569005  4.2181825451
LJ  0.0817827590  -1.5820540243  1.5909723606
LJ  -1.3767311637  -5.1513930003  1.4596029109
LJ  -2.8408114018  -3.4940190782  2.9984946079
LJ  0.4049348113  -3.2175619588  2.5202087608
LJ  -1.7581032180  -1.7692944417  1.0848543425
LJ  -2.8799928260  -4.2949677786  2.2472305322
LJ  -0.9880402987  -3.7634132983  3.9946823252
LJ  -2.1209350990  -5.0994386244  2.2615676565
LJ  -1.2470433530  -1.9724811739  2.9109285865
LJ  1.5787935050  -4.2440656306  0.3229915847
LJ  -0.0219297573  -5.6325054716  2.7120188604
LJ  -2.9212774039  -4.3441728766  0.6899802848
LJ  -0.3317884299  -5.4167683703  1.6838499309
LJ  -0.1984104976  -2.9968417452  3.9505793979
LJ  -1.7792860759  -4.5317133035  4.0502587338
LJ  -1.3260905409  -3.5959088772  1.4074902319
LJ  0.4573491400  -2.4053314894  3.2766949779
LJ  -1.8446400532  -3.3746448056  -0.4116847872
LJ  -1.4273558078  -5.9669595787  0.7058709873
LJ  -0.2381877121  -2.5915768588  1.8872899267
LJ  -0.3658064737  -5.0110486004  -0.3812528401
LJ  1.3271596561  -3.6517056971  2.1180675189
LJ  0.9298732962  -3.6099448146  -0.3131012476
LJ  -1.0284887972  -4.5639404915  3.2358145449
LJ  -1.3315361130  -4.3442170564  2.2105217297
LJ  -0.0484229700  -3.9975088257  -0.6607620104
LJ  -0.2827652098  -3.4005811147  1.1376305571
LJ  0.6035488927  -4.6258444848  -0.0238026836
LJ  -0.4639411336  -1.9545509132  3.6931127510
LJ  -1.1183472037  -6.1807455403  1.7411977376
LJ  -1.7950355456  -2.5736106744  0.3379787657
LJ  1.6156980291  -3.4398062276  1.0699297312
LJ  -2.0435439719  -3.4964592767  3.7650012762
LJ  -0.1912493124  -1.7728272525  2.6374806625
LJ  0.0329651497  -2.3996134875  0.8509467717
LJ  -1.8180432886  -5.3330277560  3.2993595411
LJ  -1.2841813710  -2.7885912346  2.1577206970
LJ  0.2715685089  -2.9813439205  -0.9493172939
LJ  -0.2448441795  -3.8038597424  3.1874350175
LJ  1.0040758752  -4.4704729631  3.8236159267
LJ  -1.0580259140  -3.3932728668  0.3687044469
LJ  -1.3710866225  -4.4007764132  0.6548100160
LJ  -0.5960531448  -4.3993834976  1.4154955321
LJ  0.7337203443  -2.2110254256  2.2273390455
LJ  -0.5524749168  -3.5909608017  2.1691230412
LJ  -0.3251677392  -4.2051489066  0.3830863971
LJ  0.5961672421  -5.8553997287  1.2932725396
LJ  0.3592123369  -4.0239111806  1.7691599568
LJ  -0.7452585406  -2.3772894250  0.0666802828
LJ  0.6819329074  -3.0214802517  1.4810981633
LJ  -0.7890553637  -3.1734028705  -0.6819871112
LJ  1.6653303417  -2.6387152676  1.8195307150
LJ  0.9594811163  -5.2700468995  3.0711901469
LJ  -2.1696019400  -5.1530004309  0.6997323622
LJ  -0.0618903545  -6.4457553060  1.9687380505
LJ  -0.5086371755  -2.7806483412  2.9237776471
LJ  -0.7271949527  -4.7989040876  4.2760398253
LJ  0.6751221905  -4.2408712622  2.7906702862
LJ  -0.8137805832  -6.4051599056  2.7786565932
LJ  -2.0659406115  -2.7899883578  1.3899007057
LJ  -1.8658717064  -6.1379691134  2.5528754999
LJ  1.5718861595  -5.4852641011  1.6542231178
LJ  1.0160552301  -2.0111784110  1.1773001873
LJ  0.3110075502  -2.1894203481  -0.1959267274
LJ  -0.6395366610  -5.2089734165  0.6600453436
LJ  0.7264624910  -3.4382838155  3.5465554481
LJ  0.6317926402  -5.0446805718  2.0413434612
LJ  0.3577492024  -1.3826007523  0.5410624767
LJ  -2.8738937766  -3.5436864497  1.4409719239
LJ  -0.3729501235  -6.2347381773  0.9321487808
LJ  -2.1091146711  -3.5909133017  0.6432627464
LJ  1.6098055910  -4.6823741272  2.4031837254
LJ  1.2518539947  -5.2585410652  0.6204450144
LJ  -2.0393067021  -2.7358845377  2.9530152620
LJ  0.0212757999  -4.8309962248  3.4592015173
LJ  -1.4215052872  -5.2089361733  -0.1061583050
LJ  -2.1736172610  -5.9094576719  1.5155567752
LJ  -0.7724377782  -5.5985714458  3.5237488070
LJ  -2.1617330672  -4.3916208725  -0.1121182977
LJ  -1.2528161815  -2.7290631484  3.7243016035
LJ  0.9695637252  -2.8127885429  0.4346849515
LJ  1.3818624033  -2.8467464926  2.8687672632
LJ  -2.1164563973  -4.3467307211  1.4515631339
LJ  -1.2897869153  -3.5384843700  2.9631879943
LJ  -2.0317246724  -1.9798263101  2.1362039563
LJ  0.2828872003  -5.6417864959  0.2596080861
LJ  -0.7028734349  -1.5746364603  0.8084143071
LJ  -0.6838618213  -6.0343142995  -0.1101227646
LJ  -2.8347077318  -2.7382128351  2.1870877832
LJ  -0.2890284893  -4.6089740029  2.4342461720
LJ  -2.9273968636  -5.1002719724  1.5011141004
LJ  0.9174904077  -6.0767258729  2.3262354199
LJ  1.6584558476  -3.8793040427  3.1513306245
LJ  0.3180295490  -4.8297471462  1.0172980835
LJ  1.2839855803  -4.4526306463  1.3714295560
